(set-info :source |
 Generated by Alive 0.1
 More info in N. P. Lopes, D. Menendez, S. Nagarakatte, J. Regehr.
 Provably Correct Peephole Optimizations with Alive. In PLDI'15.
|)

(set-info :status unknown)
(declare-fun C () (_ BitVec 43))
(declare-fun %x () (_ BitVec 10))
(declare-fun |ana_WillNotOverflowSignedAdd(%x, trunc(C))| () (_ BitVec 1))
(declare-fun u_%sx () (_ BitVec 8))
(assert
 (let (($x80812 (= (bvadd ((_ sign_extend 1) %x) ((_ sign_extend 1) ((_ extract 9 0) C))) ((_ sign_extend 1) (bvadd %x ((_ extract 9 0) C))))))
 (let (($x80598 (= (bvand C (bvshl (_ bv8796093022207 43) (bvsub (_ bv10 43) (_ bv1 43)))) (_ bv0 43))))
 (let (($x38496 (= |ana_WillNotOverflowSignedAdd(%x, trunc(C))| (_ bv1 1))))
 (let (($x41390 (= u_%sx (_ bv1 8))))
 (let (($x80817 (=> $x38496 $x80812)))
 (and $x80817 $x41390 $x38496 $x80598 (not $x80812))))))))
(check-sat)
